--- Command ---
python3 synplicate.py experiments/Banknote3/ --solver=milp_solver_big_m

--- Return Code: 0 ---

--- Standard Output (stdout) ---
Executing PAC procedure for ((0.05, 0.03))...
Extracting synthesis configuration... 
variance:4:1,
skewness:4:1,
curtosis:4:1
experiments/Banknote3//
(3, {'variance': 4, 'skewness': 4, 'curtosis': 4}, {'variance': 1, 'skewness': 1, 'curtosis': 1}, {'class': 2}, {'variance': <function variance at 0x7ac51f20cd30>, 'skewness': <function skewness at 0x7ac51f20ce50>, 'curtosis': <function curtosis at 0x7ac51f20cee0>, 'class': <function CLASS at 0x7ac51f20cf70>}, False)
Using 24621 samples ...
--- Found cache file 'experiments/Banknote3/sampler_cache_banknote.pkl'. Loading data. ---
Got 24621 samples ...
--- Head of Samples (first 5) ---
Sample 1: Features: (('variance', -0.6478096286987851), ('skewness', 11.153054423556434), ('curtosis', -0.1485568139426512)) -> Label: [('class', 0)]
Sample 2: Features: (('variance', 0.023009667533869127), ('skewness', 2.898292164101644), ('curtosis', 10.949796574897391)) -> Label: [('class', 0)]
Sample 3: Features: (('variance', 0.8299972481504101), ('skewness', -7.688933441744021), ('curtosis', -5.229562026826027)) -> Label: [('class', 1)]
Sample 4: Features: (('variance', -0.35086823943677636), ('skewness', 12.409641699301382), ('curtosis', -0.5844422508340408)) -> Label: [('class', 0)]
Sample 5: Features: (('variance', -5.338743871247887), ('skewness', -2.6850099062698636), ('curtosis', 13.456888102448943)) -> Label: [('class', 1)]
---------------------------------
=================================
 Exploring solution in region [0,100,0]
=================================
|---Estimated maximum explanation score: 6
Translating to dimacs...
Translating to wcnfdimacs...
|---Extracting soft variables...
|---Estimated maximum explanation score: 6
|---Extracting threshold variables...
|---Writing WCNF File...
Using MILP solver: milp_solver_big_m
Set parameter WLSAccessID
Set parameter WLSSecret
Set parameter LicenseID to value 2713262
Academic license 2713262 - for non-commercial use only - registered to hi___@iitb.ac.in
Set parameter OutputFlag to value 1
Max Sat...
Gurobi Optimizer version 13.0.0 build v13.0.0rc1 (linux64 - "Zorin OS 17.3")

CPU model: 12th Gen Intel(R) Core(TM) i5-12450H, instruction set [SSE2|AVX|AVX2]
Thread count: 12 physical cores, 12 logical processors, using up to 12 threads

Academic license 2713262 - for non-commercial use only - registered to hi___@iitb.ac.in
Optimize a model with 7881 rows, 2735 columns and 18306 nonzeros (Min)
Model fingerprint: 0x7204d7b8
Model has 105 linear objective coefficients
Variable types: 0 continuous, 2735 integer (2735 binary)
Coefficient statistics:
  Matrix range     [1e+00, 1e+00]
  Objective range  [6e+00, 8e+03]
  Bounds range     [1e+00, 1e+00]
  RHS range        [1e+00, 2e+00]
Presolve removed 4459 rows and 2034 columns
Presolve time: 0.11s
Presolved: 3422 rows, 701 columns, 11116 nonzeros
Variable types: 0 continuous, 701 integer (701 binary)
Found heuristic solution: objective 41265.000000
Found heuristic solution: objective 41235.000000

Root relaxation: objective 3.829833e+04, 622 iterations, 0.01 seconds (0.02 work units)

    Nodes    |    Current Node    |     Objective Bounds      |     Work
 Expl Unexpl |  Obj  Depth IntInf | Incumbent    BestBd   Gap | It/Node Time

     0     0 38298.3333    0  235 41235.0000 38298.3333  7.12%     -    0s
H    0     0                    41223.000000 38298.3333  7.09%     -    0s

Cutting planes:
  Implied bound: 20
  MIR: 28
  Zero half: 122
  RLT: 150
  BQP: 6

Explored 1 nodes (996 simplex iterations) in 0.19 seconds (0.29 work units)
Thread count was 12 (of 12 available processors)

Solution count 3: 41223 41235 41265 

Optimal solution found (tolerance 1.00e-04)
Best objective 4.122300000000e+04, best bound 4.122300000000e+04, gap 0.0000%
Total cost:41223.0
['variance', 'skewness', 'curtosis']
SatSamples :19490
explainibilityReward: 20517
correctnessReward: 19490
experiments/Banknote3//
Extracting program from witness...
(2,3) -> class_1
(2,2) -> class_1
(2,1) -> class_1
(2,0) -> class_1
(1,3) -> class_0
(1,2) -> class_0
(1,1) -> class_1
(1,0) -> class_1
(0,3) -> class_0
(0,2) -> class_0
(0,1) -> class_1
(0,0) -> class_1
0: variance
Synthesized program: experiments/Banknote3//program/program_ms_0_100_0_erm.py
Visualization: experiments/Banknote3//program/program_ms_0_100_0_erm.dot
Synthesis time:8.348393641004805
Accuracy:0.7916006660980464 (19490/24621)
Explainability: 0.8333130254660656
Adding region (0,83,0.7916006660980464)
Adding region (83,100,0)
=================================
Pareto-optimal solutions: 
 [('experiments/Banknote3//program/program_ms_0_100_0_erm.py', 0.7916006660980464, 0.8333130254660656)]


--- Standard Error (stderr) ---
